(set-logic QF_LIA)
(declare-fun x0 () Int)
(declare-fun x1 () Int)
(declare-fun x2 () Int)
(declare-fun x3 () Int)
(declare-fun x4 () Int)
(declare-fun x5 () Int)
(declare-fun x6 () Int)
(declare-fun x7 () Int)
(declare-fun x8 () Int)
(declare-fun x9 () Int)
(declare-fun A0 () Bool)
(declare-fun A1 () Bool)
(declare-fun A2 () Bool)
(declare-fun A3 () Bool)
(declare-fun A4 () Bool)
(declare-fun A5 () Bool)
(declare-fun A6 () Bool)
(declare-fun A7 () Bool)
(declare-fun A8 () Bool)
(declare-fun A9 () Bool)
(assert (let ((.def_0 (not A0))) (let ((.def_1 (* 1 x5))) (let ((.def_2 (* (- 1) x7))) (let ((.def_3 (+ .def_2 .def_1))) (let ((.def_4 (< .def_3 1))) (let ((.def_5 (not .def_4))) (let ((.def_6 (and .def_5 .def_0))) (let ((.def_7 (not .def_6))) (let ((.def_8 (* 1 x7))) (let ((.def_9 (* 1 x1))) (let ((.def_10 (+ .def_9 .def_8))) (let ((.def_11 (< .def_10 (- 1)))) (let ((.def_12 (* 1 x2))) (let ((.def_13 (* 1 x0))) (let ((.def_14 (+ .def_13 .def_12))) (let ((.def_15 (< .def_14 (- 1)))) (let ((.def_16 (not .def_15))) (let ((.def_17 (and .def_16 .def_11))) (let ((.def_18 (not .def_17))) (let ((.def_19 (and .def_18 .def_7))) (let ((.def_20 (and A6 A9))) (let ((.def_21 (* (- 1) x9))) (let ((.def_22 (< .def_21 (- 1)))) (let ((.def_23 (and .def_16 .def_22))) (let ((.def_24 (or .def_23 .def_20))) (let ((.def_25 (not .def_24))) (let ((.def_26 (and .def_25 .def_19))) (let ((.def_27 (* (- 1) x1))) (let ((.def_28 (+ .def_27 .def_13))) (let ((.def_29 (< .def_28 (- 1)))) (let ((.def_30 (not .def_29))) (let ((.def_31 (and .def_30 A8))) (let ((.def_32 (and A5 A1))) (let ((.def_33 (not .def_32))) (let ((.def_34 (or .def_33 .def_31))) (let ((.def_35 (not .def_34))) (let ((.def_36 (not A4))) (let ((.def_37 (and A7 .def_36))) (let ((.def_38 (not .def_37))) (let ((.def_39 (* (- 1) x5))) (let ((.def_40 (< .def_39 1))) (let ((.def_41 (and .def_0 .def_40))) (let ((.def_42 (and .def_41 .def_38))) (let ((.def_43 (not .def_42))) (let ((.def_44 (and .def_43 .def_35))) (let ((.def_45 (or .def_44 .def_26))) (let ((.def_46 (not .def_45))) (let ((.def_47 (+ .def_39 .def_2))) (let ((.def_48 (< .def_47 (- 1)))) (let ((.def_49 (not .def_48))) (let ((.def_50 (+ .def_21 .def_39))) (let ((.def_51 (< .def_50 1))) (let ((.def_52 (or .def_51 .def_49))) (let ((.def_53 (* (- 1) x2))) (let ((.def_54 (+ .def_9 .def_53))) (let ((.def_55 (< .def_54 (- 1)))) (let ((.def_56 (not .def_55))) (let ((.def_57 (and .def_56 .def_0))) (let ((.def_58 (not .def_57))) (let ((.def_59 (or .def_58 .def_52))) (let ((.def_60 (not A6))) (let ((.def_61 (not A5))) (let ((.def_62 (or .def_61 .def_60))) (let ((.def_63 (not .def_62))) (let ((.def_64 (* 1 x3))) (let ((.def_65 (* 1 x9))) (let ((.def_66 (+ .def_65 .def_64))) (let ((.def_67 (< .def_66 1))) (let ((.def_68 (and A0 .def_67))) (let ((.def_69 (not .def_68))) (let ((.def_70 (or .def_69 .def_63))) (let ((.def_71 (or .def_70 .def_59))) (let ((.def_72 (not .def_71))) (let ((.def_73 (* 1 x4))) (let ((.def_74 (+ .def_73 .def_21))) (let ((.def_75 (< .def_74 (- 1)))) (let ((.def_76 (not .def_75))) (let ((.def_77 (or A8 .def_76))) (let ((.def_78 (or .def_36 A8))) (let ((.def_79 (or .def_78 .def_77))) (let ((.def_80 (< .def_64 (- 1)))) (let ((.def_81 (or .def_80 A1))) (let ((.def_82 (or A3 A1))) (let ((.def_83 (and .def_82 .def_81))) (let ((.def_84 (not .def_83))) (let ((.def_85 (and .def_84 .def_79))) (let ((.def_86 (not .def_85))) (let ((.def_87 (or .def_86 .def_72))) (let ((.def_88 (and .def_87 .def_46))) (let ((.def_89 (+ .def_27 .def_1))) (let ((.def_90 (< .def_89 1))) (let ((.def_91 (and .def_90 .def_61))) (let ((.def_92 (+ .def_73 .def_12))) (let ((.def_93 (< .def_92 (- 1)))) (let ((.def_94 (not .def_93))) (let ((.def_95 (< .def_9 (- 1)))) (let ((.def_96 (and .def_95 .def_94))) (let ((.def_97 (= .def_96 .def_91))) (let ((.def_98 (not A3))) (let ((.def_99 (< .def_9 1))) (let ((.def_100 (or .def_99 .def_98))) (let ((.def_101 (not .def_100))) (let ((.def_102 (< .def_1 (- 1)))) (let ((.def_103 (not .def_102))) (let ((.def_104 (or .def_103 .def_103))) (let ((.def_105 (and .def_104 .def_101))) (let ((.def_106 (not .def_105))) (let ((.def_107 (and .def_106 .def_97))) (let ((.def_108 (not .def_107))) (let ((.def_109 (< .def_65 (- 1)))) (let ((.def_110 (not .def_109))) (let ((.def_111 (* 1 x8))) (let ((.def_112 (< .def_111 (- 1)))) (let ((.def_113 (not .def_112))) (let ((.def_114 (and .def_113 .def_110))) (let ((.def_115 (+ .def_1 .def_9))) (let ((.def_116 (< .def_115 (- 1)))) (let ((.def_117 (not .def_116))) (let ((.def_118 (not A1))) (let ((.def_119 (and .def_118 .def_117))) (let ((.def_120 (not .def_119))) (let ((.def_121 (and .def_120 .def_114))) (let ((.def_122 (< .def_13 1))) (let ((.def_123 (not A7))) (let ((.def_124 (= .def_123 .def_122))) (let ((.def_125 (not .def_124))) (let ((.def_126 (and A2 A6))) (let ((.def_127 (and .def_126 .def_125))) (let ((.def_128 (not .def_127))) (let ((.def_129 (and .def_128 .def_121))) (let ((.def_130 (or .def_129 .def_108))) (let ((.def_131 (not .def_130))) (let ((.def_132 (< .def_12 (- 1)))) (let ((.def_133 (and .def_0 .def_132))) (let ((.def_134 (not A2))) (let ((.def_135 (+ .def_21 .def_27))) (let ((.def_136 (< .def_135 1))) (let ((.def_137 (or .def_136 .def_134))) (let ((.def_138 (not .def_137))) (let ((.def_139 (and .def_138 .def_133))) (let ((.def_140 (< .def_2 (- 1)))) (let ((.def_141 (not .def_99))) (let ((.def_142 (or .def_141 .def_140))) (let ((.def_143 (< .def_27 1))) (let ((.def_144 (or .def_0 .def_143))) (let ((.def_145 (= .def_144 .def_142))) (let ((.def_146 (not .def_145))) (let ((.def_147 (or .def_146 .def_139))) (let ((.def_148 (not .def_147))) (let ((.def_149 (+ .def_27 .def_111))) (let ((.def_150 (< .def_149 (- 1)))) (let ((.def_151 (not .def_150))) (let ((.def_152 (or .def_151 .def_0))) (let ((.def_153 (not .def_152))) (let ((.def_154 (< .def_64 1))) (let ((.def_155 (or A7 .def_154))) (let ((.def_156 (or .def_155 .def_153))) (let ((.def_157 (not .def_156))) (let ((.def_158 (* (- 1) x3))) (let ((.def_159 (< .def_158 (- 1)))) (let ((.def_160 (not .def_159))) (let ((.def_161 (not A8))) (let ((.def_162 (and .def_161 .def_160))) (let ((.def_163 (not .def_40))) (let ((.def_164 (or .def_67 .def_163))) (let ((.def_165 (not .def_164))) (let ((.def_166 (and .def_165 .def_162))) (let ((.def_167 (not .def_166))) (let ((.def_168 (or .def_167 .def_157))) (let ((.def_169 (not .def_168))) (let ((.def_170 (or .def_169 .def_148))) (let ((.def_171 (not .def_170))) (let ((.def_172 (= .def_171 .def_131))) (let ((.def_173 (not .def_172))) (let ((.def_174 (or .def_173 .def_88))) (let ((.def_175 (not .def_174))) (let ((.def_176 (<= x9 1))) (let ((.def_177 (<= 0 x9))) (let ((.def_178 (<= x8 1))) (let ((.def_179 (<= 0 x8))) (let ((.def_180 (<= x7 1))) (let ((.def_181 (<= 0 x7))) (let ((.def_182 (<= x6 1))) (let ((.def_183 (<= 0 x6))) (let ((.def_184 (<= x5 1))) (let ((.def_185 (<= 0 x5))) (let ((.def_186 (<= x4 1))) (let ((.def_187 (<= 0 x4))) (let ((.def_188 (<= x3 1))) (let ((.def_189 (<= 0 x3))) (let ((.def_190 (<= x2 1))) (let ((.def_191 (<= 0 x2))) (let ((.def_192 (<= x1 1))) (let ((.def_193 (<= 0 x1))) (let ((.def_194 (<= x0 1))) (let ((.def_195 (<= 0 x0))) (let ((.def_196 (and .def_195 .def_194 .def_193 .def_192 .def_191 .def_190 .def_189 .def_188 .def_187 .def_186 .def_185 .def_184 .def_183 .def_182 .def_181 .def_180 .def_179 .def_178 .def_177 .def_176 .def_175))) .def_196))))))))))))))))))))))))))))))))))))))))))))))))))))))))))))))))))))))))))))))))))))))))))))))))))))))))))))))))))))))))))))))))))))))))))))))))))))))))))))))))))))))))))))))))))))))))))))))))))))))
(check-sat)
